param n := 3;
set S[1] := 1 2 3 4 5 6 7 8 9 10;
set S[2] := 1 2 3 4 5 6 7 8 9 10;
set S[3] := 1 2 3 4 5 6 7 8 9 10;

param A :=
[*,1,1,1]  1 64 2 102 3 441
[*,2,1,1]  1 885 2 45 3 726
[*,3,1,1]  1 347 2 661 3 760
[*,4,1,1]  1 986 2 70 3 233
[*,5,1,1]  1 432 2 483 3 77
[*,6,1,1]  1 569 2 616 3 104
[*,7,1,1]  1 623 2 604 3 682
[*,8,1,1]  1 411 2 225 3 533
[*,9,1,1]  1 116 2 534 3 333
[*,10,1,1]  1 696 2 307 3 851
[*,1,2,1]  1 191 2 780 3 706
[*,2,2,1]  1 124 2 412 3 511
[*,3,2,1]  1 475 2 415 3 19
[*,4,2,1]  1 158 2 72 3 104
[*,5,2,1]  1 322 2 194 3 516
[*,6,2,1]  1 518 2 266 3 156
[*,7,2,1]  1 432 2 221 3 575
[*,8,2,1]  1 308 2 363 3 817
[*,9,2,1]  1 348 2 31 3 250
[*,10,2,1]  1 188 2 511 3 916
[*,1,3,1]  1 429 2 436 3 921
[*,2,3,1]  1 490 2 966 3 484
[*,3,3,1]  1 741 2 55 3 671
[*,4,3,1]  1 152 2 125 3 669
[*,5,3,1]  1 650 2 785 3 197
[*,6,3,1]  1 445 2 858 3 955
[*,7,3,1]  1 734 2 359 3 688
[*,8,3,1]  1 558 2 985 3 562
[*,9,3,1]  1 279 2 634 3 571
[*,10,3,1]  1 733 2 893 3 618
[*,1,4,1]  1 475 2 370 3 405
[*,2,4,1]  1 298 2 702 3 16
[*,3,4,1]  1 663 2 663 3 325
[*,4,4,1]  1 363 2 265 3 9
[*,5,4,1]  1 268 2 836 3 62
[*,6,4,1]  1 93 2 376 3 728
[*,7,4,1]  1 522 2 910 3 1000
[*,8,4,1]  1 236 2 964 3 625
[*,9,4,1]  1 619 2 744 3 521
[*,10,4,1]  1 537 2 739 3 544
[*,1,5,1]  1 632 2 516 3 661
[*,2,5,1]  1 758 2 804 3 200
[*,3,5,1]  1 523 2 606 3 352
[*,4,5,1]  1 405 2 390 3 341
[*,5,5,1]  1 844 2 608 3 71
[*,6,5,1]  1 75 2 19 3 70
[*,7,5,1]  1 782 2 467 3 6
[*,8,5,1]  1 150 2 708 3 748
[*,9,5,1]  1 790 2 639 3 40
[*,10,5,1]  1 810 2 991 3 475
[*,1,6,1]  1 71 2 176 3 195
[*,2,6,1]  1 34 2 497 3 519
[*,3,6,1]  1 266 2 307 3 145
[*,4,6,1]  1 989 2 315 3 676
[*,5,6,1]  1 992 2 53 3 220
[*,6,6,1]  1 627 2 455 3 708
[*,7,6,1]  1 931 2 763 3 646
[*,8,6,1]  1 935 2 77 3 656
[*,9,6,1]  1 474 2 968 3 755
[*,10,6,1]  1 619 2 233 3 520
[*,1,7,1]  1 791 2 285 3 573
[*,2,7,1]  1 409 2 122 3 928
[*,3,7,1]  1 592 2 116 3 454
[*,4,7,1]  1 867 2 65 3 690
[*,5,7,1]  1 791 2 878 3 766
[*,6,7,1]  1 73 2 946 3 531
[*,7,7,1]  1 173 2 353 3 706
[*,8,7,1]  1 496 2 815 3 671
[*,9,7,1]  1 848 2 426 3 982
[*,10,7,1]  1 516 2 870 3 717
[*,1,8,1]  1 483 2 915 3 865
[*,2,8,1]  1 560 2 692 3 603
[*,3,8,1]  1 695 2 971 3 175
[*,4,8,1]  1 577 2 265 3 141
[*,5,8,1]  1 738 2 600 3 465
[*,6,8,1]  1 312 2 929 3 91
[*,7,8,1]  1 84 2 571 3 593
[*,8,8,1]  1 551 2 790 3 393
[*,9,8,1]  1 322 2 142 3 112
[*,10,8,1]  1 529 2 327 3 263
[*,1,9,1]  1 179 2 808 3 500
[*,2,9,1]  1 47 2 894 3 771
[*,3,9,1]  1 225 2 454 3 104
[*,4,9,1]  1 586 2 783 3 287
[*,5,9,1]  1 275 2 582 3 48
[*,6,9,1]  1 806 2 201 3 885
[*,7,9,1]  1 529 2 764 3 215
[*,8,9,1]  1 27 2 729 3 654
[*,9,9,1]  1 471 2 157 3 194
[*,10,9,1]  1 655 2 908 3 413
[*,1,10,1]  1 608 2 274 3 612
[*,2,10,1]  1 324 2 796 3 952
[*,3,10,1]  1 433 2 631 3 474
[*,4,10,1]  1 2 2 870 3 757
[*,5,10,1]  1 201 2 24 3 451
[*,6,10,1]  1 274 2 23 3 651
[*,7,10,1]  1 30 2 78 3 945
[*,8,10,1]  1 816 2 715 3 701
[*,9,10,1]  1 525 2 956 3 426
[*,10,10,1]  1 90 2 518 3 534
[*,1,1,2]  1 367 2 461 3 779
[*,2,1,2]  1 5 2 107 3 347
[*,3,1,2]  1 309 2 883 3 303
[*,4,1,2]  1 714 2 655 3 891
[*,5,1,2]  1 524 2 175 3 647
[*,6,1,2]  1 251 2 103 3 598
[*,7,1,2]  1 810 2 65 3 381
[*,8,1,2]  1 155 2 644 3 397
[*,9,1,2]  1 266 2 660 3 383
[*,10,1,2]  1 81 2 516 3 369
[*,1,2,2]  1 755 2 520 3 776
[*,2,2,2]  1 794 2 735 3 749
[*,3,2,2]  1 960 2 936 3 280
[*,4,2,2]  1 784 2 237 3 328
[*,5,2,2]  1 555 2 882 3 523
[*,6,2,2]  1 635 2 215 3 659
[*,7,2,2]  1 83 2 179 3 894
[*,8,2,2]  1 129 2 571 3 622
[*,9,2,2]  1 175 2 678 3 621
[*,10,2,2]  1 227 2 951 3 611
[*,1,3,2]  1 839 2 571 3 303
[*,2,3,2]  1 448 2 919 3 329
[*,3,3,2]  1 665 2 335 3 441
[*,4,3,2]  1 727 2 380 3 18
[*,5,3,2]  1 768 2 625 3 439
[*,6,3,2]  1 603 2 427 3 690
[*,7,3,2]  1 559 2 952 3 245
[*,8,3,2]  1 55 2 565 3 902
[*,9,3,2]  1 538 2 947 3 422
[*,10,3,2]  1 707 2 627 3 228
[*,1,4,2]  1 152 2 974 3 22
[*,2,4,2]  1 450 2 307 3 152
[*,3,4,2]  1 649 2 83 3 640
[*,4,4,2]  1 67 2 651 3 757
[*,5,4,2]  1 85 2 344 3 370
[*,6,4,2]  1 975 2 207 3 565
[*,7,4,2]  1 319 2 547 3 833
[*,8,4,2]  1 891 2 150 3 110
[*,9,4,2]  1 637 2 489 3 826
[*,10,4,2]  1 513 2 109 3 513
[*,1,5,2]  1 486 2 481 3 463
[*,2,5,2]  1 579 2 771 3 953
[*,3,5,2]  1 729 2 640 3 717
[*,4,5,2]  1 731 2 462 3 930
[*,5,5,2]  1 638 2 559 3 299
[*,6,5,2]  1 149 2 851 3 584
[*,7,5,2]  1 802 2 416 3 479
[*,8,5,2]  1 216 2 884 3 582
[*,9,5,2]  1 14 2 759 3 423
[*,10,5,2]  1 363 2 823 3 835
[*,1,6,2]  1 544 2 458 3 273
[*,2,6,2]  1 544 2 457 3 193
[*,3,6,2]  1 674 2 504 3 656
[*,4,6,2]  1 503 2 857 3 410
[*,5,6,2]  1 758 2 29 3 749
[*,6,6,2]  1 495 2 239 3 917
[*,7,6,2]  1 997 2 357 3 866
[*,8,6,2]  1 455 2 310 3 913
[*,9,6,2]  1 683 2 15 3 915
[*,10,6,2]  1 876 2 950 3 934
[*,1,7,2]  1 242 2 21 3 627
[*,2,7,2]  1 834 2 703 3 704
[*,3,7,2]  1 573 2 583 3 241
[*,4,7,2]  1 523 2 868 3 579
[*,5,7,2]  1 109 2 773 3 325
[*,6,7,2]  1 288 2 249 3 347
[*,7,7,2]  1 548 2 968 3 458
[*,8,7,2]  1 24 2 649 3 386
[*,9,7,2]  1 505 2 707 3 19
[*,10,7,2]  1 857 2 251 3 972
[*,1,8,2]  1 432 2 378 3 859
[*,2,8,2]  1 483 2 96 3 726
[*,3,8,2]  1 151 2 222 3 159
[*,4,8,2]  1 394 2 204 3 201
[*,5,8,2]  1 646 2 873 3 400
[*,6,8,2]  1 300 2 719 3 396
[*,7,8,2]  1 172 2 148 3 684
[*,8,8,2]  1 424 2 894 3 501
[*,9,8,2]  1 163 2 329 3 475
[*,10,8,2]  1 417 2 432 3 493
[*,1,9,2]  1 438 2 630 3 984
[*,2,9,2]  1 697 2 502 3 900
[*,3,9,2]  1 30 2 106 3 909
[*,4,9,2]  1 825 2 747 3 285
[*,5,9,2]  1 69 2 525 3 840
[*,6,9,2]  1 719 2 374 3 846
[*,7,9,2]  1 112 2 4 3 443
[*,8,9,2]  1 275 2 536 3 442
[*,9,9,2]  1 367 2 512 3 593
[*,10,9,2]  1 79 2 18 3 768
[*,1,10,2]  1 409 2 307 3 867
[*,2,10,2]  1 184 2 601 3 51
[*,3,10,2]  1 276 2 429 3 598
[*,4,10,2]  1 185 2 715 3 452
[*,5,10,2]  1 587 2 313 3 908
[*,6,10,2]  1 554 2 182 3 193
[*,7,10,2]  1 472 2 454 3 373
[*,8,10,2]  1 170 2 226 3 782
[*,9,10,2]  1 306 2 694 3 976
[*,10,10,2]  1 458 2 953 3 613
[*,1,1,3]  1 244 2 783 3 816
[*,2,1,3]  1 236 2 109 3 646
[*,3,1,3]  1 368 2 320 3 61
[*,4,1,3]  1 169 2 66 3 25
[*,5,1,3]  1 510 2 244 3 433
[*,6,1,3]  1 567 2 413 3 940
[*,7,1,3]  1 845 2 783 3 258
[*,8,1,3]  1 407 2 422 3 55
[*,9,1,3]  1 544 2 988 3 631
[*,10,1,3]  1 90 2 759 3 532
[*,1,2,3]  1 992 2 851 3 748
[*,2,2,3]  1 437 2 592 3 547
[*,3,2,3]  1 367 2 896 3 936
[*,4,2,3]  1 933 2 236 3 868
[*,5,2,3]  1 39 2 380 3 459
[*,6,2,3]  1 788 2 569 3 50
[*,7,2,3]  1 189 2 707 3 263
[*,8,2,3]  1 301 2 998 3 533
[*,9,2,3]  1 821 2 872 3 135
[*,10,2,3]  1 316 2 962 3 756
[*,1,3,3]  1 826 2 88 3 352
[*,2,3,3]  1 664 2 33 3 557
[*,3,3,3]  1 681 2 886 3 182
[*,4,3,3]  1 103 2 241 3 937
[*,5,3,3]  1 674 2 891 3 968
[*,6,3,3]  1 806 2 217 3 611
[*,7,3,3]  1 96 2 814 3 301
[*,8,3,3]  1 271 2 191 3 47
[*,9,3,3]  1 497 2 762 3 622
[*,10,3,3]  1 80 2 562 3 373
[*,1,4,3]  1 190 2 266 3 755
[*,2,4,3]  1 261 2 974 3 133
[*,3,4,3]  1 180 2 967 3 225
[*,4,4,3]  1 565 2 384 3 409
[*,5,4,3]  1 470 2 314 3 970
[*,6,4,3]  1 430 2 902 3 13
[*,7,4,3]  1 443 2 922 3 463
[*,8,4,3]  1 346 2 79 3 714
[*,9,4,3]  1 19 2 228 3 166
[*,10,4,3]  1 934 2 455 3 830
[*,1,5,3]  1 574 2 298 3 517
[*,2,5,3]  1 115 2 232 3 834
[*,3,5,3]  1 760 2 54 3 774
[*,4,5,3]  1 892 2 1 3 99
[*,5,5,3]  1 301 2 861 3 286
[*,6,5,3]  1 557 2 931 3 961
[*,7,5,3]  1 483 2 461 3 573
[*,8,5,3]  1 608 2 247 3 195
[*,9,5,3]  1 157 2 316 3 332
[*,10,5,3]  1 617 2 359 3 850
[*,1,6,3]  1 878 2 662 3 718
[*,2,6,3]  1 338 2 591 3 446
[*,3,6,3]  1 941 2 357 3 474
[*,4,6,3]  1 705 2 76 3 605
[*,5,6,3]  1 111 2 2 3 210
[*,6,6,3]  1 592 2 294 3 491
[*,7,6,3]  1 308 2 963 3 202
[*,8,6,3]  1 224 2 828 3 472
[*,9,6,3]  1 189 2 865 3 777
[*,10,6,3]  1 318 2 732 3 477
[*,1,7,3]  1 949 2 579 3 975
[*,2,7,3]  1 453 2 198 3 691
[*,3,7,3]  1 872 2 32 3 711
[*,4,7,3]  1 511 2 901 3 847
[*,5,7,3]  1 446 2 327 3 917
[*,6,7,3]  1 820 2 39 3 250
[*,7,7,3]  1 762 2 342 3 783
[*,8,7,3]  1 877 2 898 3 80
[*,9,7,3]  1 490 2 731 3 474
[*,10,7,3]  1 941 2 337 3 956
[*,1,8,3]  1 893 2 715 3 163
[*,2,8,3]  1 18 2 192 3 609
[*,3,8,3]  1 983 2 593 3 266
[*,4,8,3]  1 500 2 902 3 734
[*,5,8,3]  1 259 2 986 3 14
[*,6,8,3]  1 375 2 237 3 430
[*,7,8,3]  1 325 2 677 3 589
[*,8,8,3]  1 61 2 207 3 317
[*,9,8,3]  1 511 2 872 3 408
[*,10,8,3]  1 757 2 263 3 479
[*,1,9,3]  1 181 2 733 3 879
[*,2,9,3]  1 307 2 650 3 689
[*,3,9,3]  1 436 2 515 3 174
[*,4,9,3]  1 652 2 994 3 809
[*,5,9,3]  1 49 2 81 3 849
[*,6,9,3]  1 884 2 606 3 565
[*,7,9,3]  1 771 2 572 3 418
[*,8,9,3]  1 844 2 529 3 890
[*,9,9,3]  1 79 2 531 3 80
[*,10,9,3]  1 110 2 775 3 71
[*,1,10,3]  1 476 2 632 3 657
[*,2,10,3]  1 937 2 705 3 956
[*,3,10,3]  1 820 2 804 3 422
[*,4,10,3]  1 232 2 605 3 437
[*,5,10,3]  1 727 2 979 3 753
[*,6,10,3]  1 348 2 967 3 311
[*,7,10,3]  1 915 2 857 3 801
[*,8,10,3]  1 641 2 933 3 29
[*,9,10,3]  1 655 2 192 3 286
[*,10,10,3]  1 118 2 995 3 817
[*,1,1,4]  1 138 2 585 3 822
[*,2,1,4]  1 543 2 409 3 427
[*,3,1,4]  1 153 2 11 3 420
[*,4,1,4]  1 567 2 266 3 439
[*,5,1,4]  1 712 2 314 3 953
[*,6,1,4]  1 68 2 823 3 436
[*,7,1,4]  1 59 2 62 3 924
[*,8,1,4]  1 260 2 127 3 730
[*,9,1,4]  1 454 2 247 3 86
[*,10,1,4]  1 515 2 90 3 982
[*,1,2,4]  1 501 2 640 3 665
[*,2,2,4]  1 95 2 89 3 472
[*,3,2,4]  1 927 2 645 3 833
[*,4,2,4]  1 630 2 361 3 726
[*,5,2,4]  1 326 2 633 3 640
[*,6,2,4]  1 532 2 607 3 396
[*,7,2,4]  1 669 2 974 3 131
[*,8,2,4]  1 209 2 578 3 973
[*,9,2,4]  1 249 2 917 3 489
[*,10,2,4]  1 933 2 946 3 915
[*,1,3,4]  1 357 2 555 3 444
[*,2,3,4]  1 199 2 666 3 27
[*,3,3,4]  1 662 2 183 3 343
[*,4,3,4]  1 902 2 500 3 197
[*,5,3,4]  1 799 2 384 3 304
[*,6,3,4]  1 574 2 601 3 565
[*,7,3,4]  1 946 2 31 3 941
[*,8,3,4]  1 183 2 401 3 616
[*,9,3,4]  1 708 2 794 3 812
[*,10,3,4]  1 808 2 676 3 872
[*,1,4,4]  1 597 2 530 3 49
[*,2,4,4]  1 246 2 273 3 684
[*,3,4,4]  1 354 2 427 3 322
[*,4,4,4]  1 575 2 481 3 893
[*,5,4,4]  1 612 2 985 3 466
[*,6,4,4]  1 51 2 585 3 980
[*,7,4,4]  1 487 2 691 3 678
[*,8,4,4]  1 506 2 420 3 994
[*,9,4,4]  1 213 2 691 3 205
[*,10,4,4]  1 763 2 295 3 324
[*,1,5,4]  1 233 2 378 3 98
[*,2,5,4]  1 397 2 954 3 161
[*,3,5,4]  1 296 2 719 3 867
[*,4,5,4]  1 205 2 264 3 570
[*,5,5,4]  1 153 2 477 3 149
[*,6,5,4]  1 73 2 243 3 953
[*,7,5,4]  1 832 2 477 3 730
[*,8,5,4]  1 834 2 334 3 805
[*,9,5,4]  1 165 2 420 3 190
[*,10,5,4]  1 400 2 439 3 62
[*,1,6,4]  1 943 2 739 3 665
[*,2,6,4]  1 725 2 929 3 527
[*,3,6,4]  1 676 2 66 3 175
[*,4,6,4]  1 456 2 530 3 629
[*,5,6,4]  1 388 2 244 3 708
[*,6,6,4]  1 698 2 672 3 508
[*,7,6,4]  1 997 2 584 3 836
[*,8,6,4]  1 791 2 414 3 652
[*,9,6,4]  1 894 2 587 3 897
[*,10,6,4]  1 170 2 639 3 525
[*,1,7,4]  1 937 2 168 3 963
[*,2,7,4]  1 979 2 718 3 829
[*,3,7,4]  1 961 2 225 3 866
[*,4,7,4]  1 593 2 680 3 927
[*,5,7,4]  1 373 2 69 3 827
[*,6,7,4]  1 209 2 829 3 65
[*,7,7,4]  1 642 2 724 3 655
[*,8,7,4]  1 516 2 603 3 199
[*,9,7,4]  1 630 2 868 3 668
[*,10,7,4]  1 662 2 648 3 519
[*,1,8,4]  1 215 2 170 3 303
[*,2,8,4]  1 249 2 958 3 154
[*,3,8,4]  1 582 2 181 3 675
[*,4,8,4]  1 659 2 711 3 706
[*,5,8,4]  1 688 2 653 3 899
[*,6,8,4]  1 985 2 733 3 252
[*,7,8,4]  1 582 2 67 3 976
[*,8,8,4]  1 205 2 533 3 449
[*,9,8,4]  1 706 2 218 3 93
[*,10,8,4]  1 864 2 416 3 721
[*,1,9,4]  1 647 2 429 3 822
[*,2,9,4]  1 522 2 388 3 814
[*,3,9,4]  1 617 2 347 3 345
[*,4,9,4]  1 19 2 632 3 686
[*,5,9,4]  1 667 2 412 3 438
[*,6,9,4]  1 492 2 101 3 178
[*,7,9,4]  1 303 2 214 3 714
[*,8,9,4]  1 957 2 867 3 398
[*,9,9,4]  1 917 2 522 3 873
[*,10,9,4]  1 558 2 997 3 515
[*,1,10,4]  1 727 2 315 3 465
[*,2,10,4]  1 910 2 775 3 861
[*,3,10,4]  1 718 2 614 3 650
[*,4,10,4]  1 662 2 699 3 768
[*,5,10,4]  1 192 2 920 3 445
[*,6,10,4]  1 723 2 27 3 742
[*,7,10,4]  1 724 2 277 3 67
[*,8,10,4]  1 126 2 198 3 773
[*,9,10,4]  1 846 2 881 3 893
[*,10,10,4]  1 865 2 838 3 318
[*,1,1,5]  1 130 2 271 3 644
[*,2,1,5]  1 78 2 403 3 647
[*,3,1,5]  1 203 2 815 3 168
[*,4,1,5]  1 789 2 984 3 507
[*,5,1,5]  1 892 2 718 3 483
[*,6,1,5]  1 54 2 248 3 867
[*,7,1,5]  1 162 2 493 3 789
[*,8,1,5]  1 485 2 419 3 592
[*,9,1,5]  1 35 2 609 3 91
[*,10,1,5]  1 780 2 423 3 409
[*,1,2,5]  1 432 2 429 3 230
[*,2,2,5]  1 503 2 543 3 208
[*,3,2,5]  1 140 2 859 3 707
[*,4,2,5]  1 873 2 873 3 270
[*,5,2,5]  1 194 2 138 3 932
[*,6,2,5]  1 953 2 626 3 429
[*,7,2,5]  1 253 2 752 3 165
[*,8,2,5]  1 234 2 352 3 571
[*,9,2,5]  1 397 2 424 3 297
[*,10,2,5]  1 142 2 995 3 428
[*,1,3,5]  1 676 2 936 3 928
[*,2,3,5]  1 350 2 597 3 84
[*,3,3,5]  1 252 2 193 3 615
[*,4,3,5]  1 425 2 272 3 141
[*,5,3,5]  1 420 2 426 3 196
[*,6,3,5]  1 446 2 45 3 530
[*,7,3,5]  1 197 2 861 3 349
[*,8,3,5]  1 674 2 220 3 696
[*,9,3,5]  1 525 2 115 3 719
[*,10,3,5]  1 524 2 431 3 409
[*,1,4,5]  1 982 2 283 3 606
[*,2,4,5]  1 388 2 638 3 18
[*,3,4,5]  1 955 2 226 3 435
[*,4,4,5]  1 790 2 180 3 249
[*,5,4,5]  1 418 2 350 3 252
[*,6,4,5]  1 966 2 182 3 998
[*,7,4,5]  1 372 2 915 3 951
[*,8,4,5]  1 707 2 122 3 285
[*,9,4,5]  1 875 2 967 3 743
[*,10,4,5]  1 997 2 60 3 21
[*,1,5,5]  1 801 2 827 3 564
[*,2,5,5]  1 96 2 784 3 423
[*,3,5,5]  1 754 2 41 3 561
[*,4,5,5]  1 570 2 212 3 251
[*,5,5,5]  1 981 2 875 3 609
[*,6,5,5]  1 120 2 352 3 87
[*,7,5,5]  1 812 2 330 3 930
[*,8,5,5]  1 659 2 794 3 188
[*,9,5,5]  1 89 2 798 3 793
[*,10,5,5]  1 835 2 278 3 146
[*,1,6,5]  1 589 2 648 3 489
[*,2,6,5]  1 472 2 655 3 320
[*,3,6,5]  1 474 2 219 3 446
[*,4,6,5]  1 147 2 565 3 520
[*,5,6,5]  1 40 2 801 3 609
[*,6,6,5]  1 363 2 913 3 461
[*,7,6,5]  1 164 2 870 3 652
[*,8,6,5]  1 483 2 814 3 331
[*,9,6,5]  1 995 2 961 3 186
[*,10,6,5]  1 455 2 753 3 394
[*,1,7,5]  1 7 2 529 3 748
[*,2,7,5]  1 385 2 344 3 598
[*,3,7,5]  1 143 2 781 3 962
[*,4,7,5]  1 530 2 204 3 877
[*,5,7,5]  1 620 2 832 3 833
[*,6,7,5]  1 367 2 982 3 398
[*,7,7,5]  1 908 2 539 3 764
[*,8,7,5]  1 937 2 858 3 794
[*,9,7,5]  1 647 2 699 3 665
[*,10,7,5]  1 940 2 498 3 235
[*,1,8,5]  1 901 2 894 3 428
[*,2,8,5]  1 394 2 289 3 335
[*,3,8,5]  1 275 2 416 3 690
[*,4,8,5]  1 591 2 138 3 995
[*,5,8,5]  1 437 2 535 3 743
[*,6,8,5]  1 449 2 344 3 551
[*,7,8,5]  1 494 2 665 3 835
[*,8,8,5]  1 680 2 284 3 345
[*,9,8,5]  1 121 2 938 3 291
[*,10,8,5]  1 158 2 470 3 367
[*,1,9,5]  1 253 2 816 3 253
[*,2,9,5]  1 851 2 930 3 766
[*,3,9,5]  1 547 2 863 3 803
[*,4,9,5]  1 115 2 810 3 309
[*,5,9,5]  1 322 2 688 3 312
[*,6,9,5]  1 382 2 427 3 589
[*,7,9,5]  1 787 2 864 3 406
[*,8,9,5]  1 466 2 13 3 633
[*,9,9,5]  1 583 2 736 3 850
[*,10,9,5]  1 217 2 795 3 413
[*,1,10,5]  1 603 2 132 3 48
[*,2,10,5]  1 791 2 440 3 390
[*,3,10,5]  1 303 2 189 3 984
[*,4,10,5]  1 976 2 858 3 141
[*,5,10,5]  1 171 2 362 3 344
[*,6,10,5]  1 926 2 854 3 81
[*,7,10,5]  1 998 2 82 3 715
[*,8,10,5]  1 201 2 481 3 583
[*,9,10,5]  1 487 2 74 3 175
[*,10,10,5]  1 736 2 614 3 97
[*,1,1,6]  1 604 2 410 3 7
[*,2,1,6]  1 347 2 340 3 125
[*,3,1,6]  1 716 2 853 3 510
[*,4,1,6]  1 716 2 962 3 960
[*,5,1,6]  1 827 2 714 3 163
[*,6,1,6]  1 706 2 875 3 329
[*,7,1,6]  1 287 2 396 3 229
[*,8,1,6]  1 956 2 144 3 563
[*,9,1,6]  1 884 2 404 3 945
[*,10,1,6]  1 367 2 393 3 608
[*,1,2,6]  1 830 2 4 3 9
[*,2,2,6]  1 514 2 836 3 165
[*,3,2,6]  1 182 2 867 3 205
[*,4,2,6]  1 650 2 702 3 160
[*,5,2,6]  1 779 2 261 3 852
[*,6,2,6]  1 613 2 712 3 746
[*,7,2,6]  1 6 2 117 3 631
[*,8,2,6]  1 138 2 196 3 277
[*,9,2,6]  1 930 2 45 3 321
[*,10,2,6]  1 285 2 867 3 573
[*,1,3,6]  1 821 2 148 3 699
[*,2,3,6]  1 360 2 853 3 943
[*,3,3,6]  1 186 2 852 3 204
[*,4,3,6]  1 120 2 403 3 364
[*,5,3,6]  1 484 2 576 3 951
[*,6,3,6]  1 620 2 375 3 188
[*,7,3,6]  1 344 2 493 3 71
[*,8,3,6]  1 673 2 545 3 359
[*,9,3,6]  1 392 2 230 3 398
[*,10,3,6]  1 54 2 425 3 171
[*,1,4,6]  1 937 2 711 3 963
[*,2,4,6]  1 834 2 397 3 872
[*,3,4,6]  1 486 2 447 3 55
[*,4,4,6]  1 111 2 851 3 238
[*,5,4,6]  1 929 2 98 3 433
[*,6,4,6]  1 16 2 745 3 458
[*,7,4,6]  1 938 2 646 3 495
[*,8,4,6]  1 986 2 733 3 346
[*,9,4,6]  1 423 2 802 3 87
[*,10,4,6]  1 461 2 212 3 791
[*,1,5,6]  1 405 2 464 3 700
[*,2,5,6]  1 262 2 165 3 228
[*,3,5,6]  1 513 2 78 3 968
[*,4,5,6]  1 237 2 567 3 646
[*,5,5,6]  1 870 2 305 3 527
[*,6,5,6]  1 83 2 861 3 511
[*,7,5,6]  1 957 2 507 3 236
[*,8,5,6]  1 566 2 78 3 955
[*,9,5,6]  1 315 2 507 3 739
[*,10,5,6]  1 594 2 936 3 663
[*,1,6,6]  1 505 2 980 3 936
[*,2,6,6]  1 142 2 465 3 931
[*,3,6,6]  1 786 2 623 3 737
[*,4,6,6]  1 127 2 524 3 170
[*,5,6,6]  1 444 2 993 3 41
[*,6,6,6]  1 832 2 313 3 528
[*,7,6,6]  1 839 2 324 3 952
[*,8,6,6]  1 698 2 403 3 681
[*,9,6,6]  1 294 2 736 3 368
[*,10,6,6]  1 854 2 640 3 193
[*,1,7,6]  1 844 2 412 3 255
[*,2,7,6]  1 843 2 297 3 122
[*,3,7,6]  1 468 2 656 3 628
[*,4,7,6]  1 945 2 798 3 830
[*,5,7,6]  1 244 2 173 3 721
[*,6,7,6]  1 583 2 165 3 730
[*,7,7,6]  1 282 2 725 3 456
[*,8,7,6]  1 437 2 938 3 290
[*,9,7,6]  1 570 2 897 3 698
[*,10,7,6]  1 434 2 512 3 967
[*,1,8,6]  1 792 2 584 3 68
[*,2,8,6]  1 254 2 909 3 327
[*,3,8,6]  1 766 2 885 3 275
[*,4,8,6]  1 863 2 602 3 901
[*,5,8,6]  1 655 2 943 3 44
[*,6,8,6]  1 932 2 719 3 69
[*,7,8,6]  1 301 2 515 3 53
[*,8,8,6]  1 397 2 337 3 296
[*,9,8,6]  1 503 2 255 3 662
[*,10,8,6]  1 570 2 511 3 340
[*,1,9,6]  1 508 2 118 3 475
[*,2,9,6]  1 729 2 586 3 40
[*,3,9,6]  1 261 2 583 3 261
[*,4,9,6]  1 343 2 441 3 981
[*,5,9,6]  1 653 2 377 3 930
[*,6,9,6]  1 711 2 865 3 816
[*,7,9,6]  1 263 2 891 3 249
[*,8,9,6]  1 774 2 873 3 304
[*,9,9,6]  1 414 2 804 3 397
[*,10,9,6]  1 916 2 438 3 29
[*,1,10,6]  1 183 2 597 3 592
[*,2,10,6]  1 320 2 927 3 258
[*,3,10,6]  1 704 2 519 3 576
[*,4,10,6]  1 692 2 229 3 950
[*,5,10,6]  1 418 2 197 3 934
[*,6,10,6]  1 88 2 604 3 652
[*,7,10,6]  1 129 2 62 3 152
[*,8,10,6]  1 106 2 284 3 872
[*,9,10,6]  1 872 2 95 3 938
[*,10,10,6]  1 564 2 562 3 826
[*,1,1,7]  1 799 2 352 3 206
[*,2,1,7]  1 115 2 48 3 638
[*,3,1,7]  1 938 2 416 3 915
[*,4,1,7]  1 168 2 967 3 646
[*,5,1,7]  1 792 2 83 3 710
[*,6,1,7]  1 463 2 227 3 481
[*,7,1,7]  1 950 2 604 3 442
[*,8,1,7]  1 201 2 878 3 451
[*,9,1,7]  1 146 2 921 3 555
[*,10,1,7]  1 409 2 748 3 374
[*,1,2,7]  1 416 2 903 3 329
[*,2,2,7]  1 390 2 181 3 730
[*,3,2,7]  1 42 2 741 3 698
[*,4,2,7]  1 266 2 13 3 282
[*,5,2,7]  1 23 2 572 3 136
[*,6,2,7]  1 644 2 283 3 758
[*,7,2,7]  1 618 2 880 3 722
[*,8,2,7]  1 14 2 549 3 742
[*,9,2,7]  1 601 2 669 3 269
[*,10,2,7]  1 985 2 559 3 230
[*,1,3,7]  1 788 2 966 3 385
[*,2,3,7]  1 814 2 94 3 41
[*,3,3,7]  1 127 2 631 3 699
[*,4,3,7]  1 713 2 887 3 124
[*,5,3,7]  1 446 2 312 3 679
[*,6,3,7]  1 212 2 153 3 945
[*,7,3,7]  1 218 2 596 3 417
[*,8,3,7]  1 887 2 596 3 471
[*,9,3,7]  1 540 2 105 3 361
[*,10,3,7]  1 81 2 273 3 547
[*,1,4,7]  1 653 2 489 3 870
[*,2,4,7]  1 5 2 686 3 610
[*,3,4,7]  1 692 2 772 3 48
[*,4,4,7]  1 12 2 436 3 102
[*,5,4,7]  1 24 2 266 3 936
[*,6,4,7]  1 449 2 351 3 646
[*,7,4,7]  1 331 2 813 3 623
[*,8,4,7]  1 786 2 335 3 33
[*,9,4,7]  1 856 2 506 3 299
[*,10,4,7]  1 794 2 551 3 401
[*,1,5,7]  1 695 2 218 3 989
[*,2,5,7]  1 914 2 695 3 326
[*,3,5,7]  1 355 2 608 3 550
[*,4,5,7]  1 401 2 743 3 995
[*,5,5,7]  1 534 2 229 3 57
[*,6,5,7]  1 867 2 335 3 466
[*,7,5,7]  1 302 2 277 3 898
[*,8,5,7]  1 965 2 788 3 437
[*,9,5,7]  1 900 2 672 3 334
[*,10,5,7]  1 626 2 213 3 836
[*,1,6,7]  1 639 2 814 3 976
[*,2,6,7]  1 699 2 603 3 136
[*,3,6,7]  1 118 2 430 3 537
[*,4,6,7]  1 525 2 471 3 112
[*,5,6,7]  1 873 2 795 3 971
[*,6,6,7]  1 743 2 214 3 204
[*,7,6,7]  1 730 2 796 3 277
[*,8,6,7]  1 51 2 216 3 625
[*,9,6,7]  1 591 2 220 3 139
[*,10,6,7]  1 138 2 598 3 604
[*,1,7,7]  1 123 2 457 3 135
[*,2,7,7]  1 298 2 696 3 994
[*,3,7,7]  1 164 2 39 3 661
[*,4,7,7]  1 231 2 10 3 863
[*,5,7,7]  1 433 2 734 3 274
[*,6,7,7]  1 131 2 503 3 431
[*,7,7,7]  1 93 2 92 3 813
[*,8,7,7]  1 879 2 371 3 940
[*,9,7,7]  1 414 2 391 3 158
[*,10,7,7]  1 876 2 493 3 139
[*,1,8,7]  1 390 2 22 3 531
[*,2,8,7]  1 13 2 809 3 185
[*,3,8,7]  1 59 2 874 3 977
[*,4,8,7]  1 362 2 288 3 40
[*,5,8,7]  1 972 2 542 3 634
[*,6,8,7]  1 268 2 516 3 893
[*,7,8,7]  1 991 2 266 3 7
[*,8,8,7]  1 592 2 486 3 742
[*,9,8,7]  1 162 2 668 3 288
[*,10,8,7]  1 352 2 767 3 976
[*,1,9,7]  1 994 2 409 3 316
[*,2,9,7]  1 57 2 51 3 172
[*,3,9,7]  1 168 2 996 3 627
[*,4,9,7]  1 584 2 235 3 556
[*,5,9,7]  1 413 2 818 3 74
[*,6,9,7]  1 785 2 795 3 656
[*,7,9,7]  1 723 2 58 3 979
[*,8,9,7]  1 715 2 581 3 950
[*,9,9,7]  1 721 2 840 3 83
[*,10,9,7]  1 685 2 440 3 461
[*,1,10,7]  1 10 2 926 3 687
[*,2,10,7]  1 606 2 780 3 527
[*,3,10,7]  1 114 2 343 3 167
[*,4,10,7]  1 504 2 310 3 806
[*,5,10,7]  1 517 2 882 3 172
[*,6,10,7]  1 664 2 696 3 249
[*,7,10,7]  1 703 2 807 3 632
[*,8,10,7]  1 854 2 526 3 301
[*,9,10,7]  1 595 2 795 3 671
[*,10,10,7]  1 139 2 47 3 401
[*,1,1,8]  1 666 2 148 3 194
[*,2,1,8]  1 232 2 302 3 461
[*,3,1,8]  1 182 2 176 3 925
[*,4,1,8]  1 359 2 183 3 56
[*,5,1,8]  1 597 2 876 3 542
[*,6,1,8]  1 765 2 934 3 557
[*,7,1,8]  1 489 2 411 3 13
[*,8,1,8]  1 876 2 908 3 176
[*,9,1,8]  1 281 2 401 3 80
[*,10,1,8]  1 585 2 33 3 456
[*,1,2,8]  1 327 2 658 3 606
[*,2,2,8]  1 190 2 4 3 999
[*,3,2,8]  1 177 2 181 3 343
[*,4,2,8]  1 213 2 663 3 406
[*,5,2,8]  1 237 2 145 3 44
[*,6,2,8]  1 241 2 167 3 396
[*,7,2,8]  1 78 2 351 3 148
[*,8,2,8]  1 200 2 288 3 783
[*,9,2,8]  1 707 2 249 3 816
[*,10,2,8]  1 303 2 660 3 306
[*,1,3,8]  1 652 2 46 3 678
[*,2,3,8]  1 459 2 625 3 832
[*,3,3,8]  1 405 2 704 3 431
[*,4,3,8]  1 93 2 207 3 109
[*,5,3,8]  1 938 2 204 3 457
[*,6,3,8]  1 233 2 4 3 171
[*,7,3,8]  1 640 2 588 3 995
[*,8,3,8]  1 22 2 450 3 885
[*,9,3,8]  1 310 2 987 3 491
[*,10,3,8]  1 545 2 204 3 516
[*,1,4,8]  1 152 2 413 3 391
[*,2,4,8]  1 435 2 717 3 949
[*,3,4,8]  1 964 2 150 3 805
[*,4,4,8]  1 189 2 389 3 546
[*,5,4,8]  1 769 2 628 3 492
[*,6,4,8]  1 437 2 805 3 820
[*,7,4,8]  1 621 2 721 3 101
[*,8,4,8]  1 871 2 371 3 152
[*,9,4,8]  1 532 2 205 3 615
[*,10,4,8]  1 518 2 88 3 947
[*,1,5,8]  1 847 2 321 3 403
[*,2,5,8]  1 31 2 232 3 514
[*,3,5,8]  1 545 2 637 3 126
[*,4,5,8]  1 671 2 457 3 933
[*,5,5,8]  1 252 2 64 3 271
[*,6,5,8]  1 127 2 158 3 435
[*,7,5,8]  1 43 2 768 3 59
[*,8,5,8]  1 949 2 331 3 853
[*,9,5,8]  1 687 2 681 3 429
[*,10,5,8]  1 749 2 299 3 239
[*,1,6,8]  1 11 2 166 3 557
[*,2,6,8]  1 579 2 393 3 400
[*,3,6,8]  1 641 2 867 3 624
[*,4,6,8]  1 878 2 517 3 246
[*,5,6,8]  1 119 2 552 3 20
[*,6,6,8]  1 737 2 633 3 86
[*,7,6,8]  1 57 2 104 3 951
[*,8,6,8]  1 868 2 987 3 368
[*,9,6,8]  1 756 2 818 3 1000
[*,10,6,8]  1 897 2 848 3 602
[*,1,7,8]  1 61 2 383 3 14
[*,2,7,8]  1 401 2 883 3 786
[*,3,7,8]  1 574 2 570 3 179
[*,4,7,8]  1 367 2 905 3 597
[*,5,7,8]  1 344 2 159 3 959
[*,6,7,8]  1 562 2 667 3 880
[*,7,7,8]  1 152 2 903 3 59
[*,8,7,8]  1 105 2 803 3 666
[*,9,7,8]  1 322 2 664 3 696
[*,10,7,8]  1 579 2 949 3 678
[*,1,8,8]  1 212 2 216 3 503
[*,2,8,8]  1 319 2 913 3 262
[*,3,8,8]  1 690 2 379 3 467
[*,4,8,8]  1 349 2 358 3 6
[*,5,8,8]  1 204 2 270 3 750
[*,6,8,8]  1 504 2 719 3 388
[*,7,8,8]  1 562 2 926 3 428
[*,8,8,8]  1 938 2 485 3 290
[*,9,8,8]  1 79 2 531 3 203
[*,10,8,8]  1 658 2 867 3 579
[*,1,9,8]  1 30 2 985 3 926
[*,2,9,8]  1 550 2 680 3 582
[*,3,9,8]  1 646 2 926 3 991
[*,4,9,8]  1 290 2 506 3 497
[*,5,9,8]  1 756 2 983 3 821
[*,6,9,8]  1 149 2 208 3 798
[*,7,9,8]  1 111 2 621 3 143
[*,8,9,8]  1 578 2 562 3 795
[*,9,9,8]  1 60 2 376 3 439
[*,10,9,8]  1 977 2 236 3 515
[*,1,10,8]  1 129 2 250 3 104
[*,2,10,8]  1 607 2 926 3 454
[*,3,10,8]  1 893 2 141 3 586
[*,4,10,8]  1 561 2 25 3 754
[*,5,10,8]  1 133 2 177 3 377
[*,6,10,8]  1 47 2 429 3 741
[*,7,10,8]  1 163 2 850 3 483
[*,8,10,8]  1 525 2 836 3 204
[*,9,10,8]  1 590 2 867 3 116
[*,10,10,8]  1 878 2 944 3 236
[*,1,1,9]  1 971 2 210 3 491
[*,2,1,9]  1 604 2 171 3 155
[*,3,1,9]  1 452 2 300 3 741
[*,4,1,9]  1 930 2 103 3 983
[*,5,1,9]  1 581 2 365 3 144
[*,6,1,9]  1 643 2 257 3 75
[*,7,1,9]  1 187 2 534 3 923
[*,8,1,9]  1 881 2 722 3 802
[*,9,1,9]  1 238 2 495 3 173
[*,10,1,9]  1 124 2 48 3 294
[*,1,2,9]  1 523 2 77 3 649
[*,2,2,9]  1 235 2 361 3 100
[*,3,2,9]  1 383 2 300 3 79
[*,4,2,9]  1 868 2 417 3 619
[*,5,2,9]  1 383 2 577 3 587
[*,6,2,9]  1 379 2 280 3 197
[*,7,2,9]  1 329 2 914 3 124
[*,8,2,9]  1 976 2 801 3 890
[*,9,2,9]  1 417 2 595 3 524
[*,10,2,9]  1 356 2 535 3 156
[*,1,3,9]  1 20 2 528 3 692
[*,2,3,9]  1 876 2 174 3 564
[*,3,3,9]  1 45 2 734 3 313
[*,4,3,9]  1 274 2 4 3 480
[*,5,3,9]  1 254 2 637 3 487
[*,6,3,9]  1 459 2 929 3 271
[*,7,3,9]  1 76 2 375 3 532
[*,8,3,9]  1 470 2 761 3 703
[*,9,3,9]  1 507 2 273 3 257
[*,10,3,9]  1 749 2 137 3 62
[*,1,4,9]  1 652 2 457 3 913
[*,2,4,9]  1 577 2 528 3 946
[*,3,4,9]  1 356 2 864 3 498
[*,4,4,9]  1 398 2 467 3 604
[*,5,4,9]  1 575 2 381 3 529
[*,6,4,9]  1 451 2 664 3 889
[*,7,4,9]  1 539 2 541 3 954
[*,8,4,9]  1 401 2 171 3 39
[*,9,4,9]  1 991 2 14 3 787
[*,10,4,9]  1 691 2 694 3 319
[*,1,5,9]  1 698 2 651 3 690
[*,2,5,9]  1 974 2 538 3 458
[*,3,5,9]  1 884 2 96 3 397
[*,4,5,9]  1 960 2 330 3 481
[*,5,5,9]  1 56 2 115 3 79
[*,6,5,9]  1 377 2 504 3 87
[*,7,5,9]  1 917 2 944 3 715
[*,8,5,9]  1 769 2 569 3 878
[*,9,5,9]  1 524 2 896 3 202
[*,10,5,9]  1 599 2 319 3 189
[*,1,6,9]  1 853 2 331 3 184
[*,2,6,9]  1 578 2 691 3 890
[*,3,6,9]  1 81 2 392 3 863
[*,4,6,9]  1 459 2 623 3 540
[*,5,6,9]  1 51 2 722 3 9
[*,6,6,9]  1 165 2 764 3 714
[*,7,6,9]  1 726 2 903 3 817
[*,8,6,9]  1 425 2 708 3 923
[*,9,6,9]  1 398 2 739 3 711
[*,10,6,9]  1 138 2 648 3 522
[*,1,7,9]  1 850 2 564 3 681
[*,2,7,9]  1 787 2 351 3 615
[*,3,7,9]  1 519 2 665 3 812
[*,4,7,9]  1 230 2 532 3 565
[*,5,7,9]  1 470 2 124 3 572
[*,6,7,9]  1 313 2 240 3 142
[*,7,7,9]  1 131 2 217 3 579
[*,8,7,9]  1 619 2 563 3 24
[*,9,7,9]  1 548 2 909 3 593
[*,10,7,9]  1 439 2 796 3 759
[*,1,8,9]  1 89 2 441 3 592
[*,2,8,9]  1 980 2 363 3 929
[*,3,8,9]  1 407 2 996 3 39
[*,4,8,9]  1 327 2 39 3 138
[*,5,8,9]  1 898 2 657 3 720
[*,6,8,9]  1 271 2 961 3 247
[*,7,8,9]  1 167 2 207 3 459
[*,8,8,9]  1 669 2 76 3 585
[*,9,8,9]  1 298 2 740 3 121
[*,10,8,9]  1 385 2 70 3 403
[*,1,9,9]  1 151 2 998 3 652
[*,2,9,9]  1 88 2 860 3 843
[*,3,9,9]  1 971 2 741 3 933
[*,4,9,9]  1 819 2 561 3 14
[*,5,9,9]  1 312 2 525 3 125
[*,6,9,9]  1 267 2 987 3 44
[*,7,9,9]  1 443 2 928 3 476
[*,8,9,9]  1 287 2 594 3 448
[*,9,9,9]  1 906 2 312 3 672
[*,10,9,9]  1 546 2 502 3 808
[*,1,10,9]  1 857 2 722 3 65
[*,2,10,9]  1 922 2 966 3 998
[*,3,10,9]  1 965 2 912 3 379
[*,4,10,9]  1 714 2 58 3 698
[*,5,10,9]  1 528 2 761 3 874
[*,6,10,9]  1 226 2 2 3 33
[*,7,10,9]  1 454 2 721 3 643
[*,8,10,9]  1 19 2 140 3 316
[*,9,10,9]  1 975 2 408 3 743
[*,10,10,9]  1 238 2 656 3 301
[*,1,1,10]  1 532 2 745 3 686
[*,2,1,10]  1 104 2 606 3 260
[*,3,1,10]  1 535 2 489 3 357
[*,4,1,10]  1 672 2 413 3 851
[*,5,1,10]  1 877 2 657 3 456
[*,6,1,10]  1 541 2 370 3 929
[*,7,1,10]  1 665 2 775 3 850
[*,8,1,10]  1 756 2 99 3 544
[*,9,1,10]  1 681 2 732 3 919
[*,10,1,10]  1 18 2 780 3 760
[*,1,2,10]  1 604 2 915 3 647
[*,2,2,10]  1 429 2 840 3 59
[*,3,2,10]  1 730 2 493 3 364
[*,4,2,10]  1 880 2 13 3 947
[*,5,2,10]  1 266 2 929 3 134
[*,6,2,10]  1 283 2 116 3 557
[*,7,2,10]  1 798 2 861 3 567
[*,8,2,10]  1 812 2 697 3 992
[*,9,2,10]  1 4 2 243 3 693
[*,10,2,10]  1 219 2 157 3 738
[*,1,3,10]  1 533 2 507 3 567
[*,2,3,10]  1 766 2 957 3 561
[*,3,3,10]  1 246 2 357 3 643
[*,4,3,10]  1 192 2 835 3 981
[*,5,3,10]  1 82 2 777 3 148
[*,6,3,10]  1 5 2 133 3 125
[*,7,3,10]  1 979 2 778 3 713
[*,8,3,10]  1 713 2 696 3 537
[*,9,3,10]  1 787 2 124 3 211
[*,10,3,10]  1 174 2 604 3 695
[*,1,4,10]  1 605 2 661 3 891
[*,2,4,10]  1 861 2 858 3 364
[*,3,4,10]  1 577 2 368 3 820
[*,4,4,10]  1 719 2 409 3 601
[*,5,4,10]  1 834 2 812 3 775
[*,6,4,10]  1 525 2 195 3 173
[*,7,4,10]  1 918 2 343 3 903
[*,8,4,10]  1 733 2 683 3 825
[*,9,4,10]  1 47 2 235 3 922
[*,10,4,10]  1 405 2 481 3 562
[*,1,5,10]  1 693 2 565 3 411
[*,2,5,10]  1 389 2 411 3 733
[*,3,5,10]  1 865 2 265 3 203
[*,4,5,10]  1 909 2 65 3 763
[*,5,5,10]  1 810 2 478 3 127
[*,6,5,10]  1 581 2 508 3 255
[*,7,5,10]  1 632 2 579 3 696
[*,8,5,10]  1 608 2 72 3 548
[*,9,5,10]  1 991 2 614 3 337
[*,10,5,10]  1 155 2 895 3 617
[*,1,6,10]  1 989 2 908 3 360
[*,2,6,10]  1 204 2 225 3 173
[*,3,6,10]  1 864 2 591 3 112
[*,4,6,10]  1 240 2 944 3 631
[*,5,6,10]  1 908 2 201 3 462
[*,6,6,10]  1 178 2 982 3 916
[*,7,6,10]  1 293 2 343 3 171
[*,8,6,10]  1 676 2 505 3 249
[*,9,6,10]  1 179 2 239 3 590
[*,10,6,10]  1 256 2 982 3 834
[*,1,7,10]  1 729 2 276 3 72
[*,2,7,10]  1 336 2 638 3 708
[*,3,7,10]  1 738 2 294 3 39
[*,4,7,10]  1 728 2 574 3 683
[*,5,7,10]  1 399 2 171 3 804
[*,6,7,10]  1 285 2 168 3 994
[*,7,7,10]  1 53 2 340 3 376
[*,8,7,10]  1 351 2 676 3 731
[*,9,7,10]  1 143 2 655 3 871
[*,10,7,10]  1 250 2 310 3 614
[*,1,8,10]  1 311 2 665 3 163
[*,2,8,10]  1 98 2 227 3 198
[*,3,8,10]  1 962 2 883 3 462
[*,4,8,10]  1 696 2 783 3 790
[*,5,8,10]  1 242 2 285 3 988
[*,6,8,10]  1 417 2 76 3 505
[*,7,8,10]  1 531 2 742 3 496
[*,8,8,10]  1 997 2 136 3 141
[*,9,8,10]  1 67 2 587 3 335
[*,10,8,10]  1 926 2 437 3 242
[*,1,9,10]  1 304 2 426 3 37
[*,2,9,10]  1 721 2 381 3 705
[*,3,9,10]  1 366 2 926 3 188
[*,4,9,10]  1 488 2 763 3 874
[*,5,9,10]  1 306 2 553 3 935
[*,6,9,10]  1 940 2 529 3 808
[*,7,9,10]  1 508 2 534 3 818
[*,8,9,10]  1 596 2 355 3 632
[*,9,9,10]  1 219 2 243 3 474
[*,10,9,10]  1 671 2 159 3 767
[*,1,10,10]  1 743 2 137 3 762
[*,2,10,10]  1 726 2 977 3 822
[*,3,10,10]  1 7 2 596 3 318
[*,4,10,10]  1 136 2 853 3 732
[*,5,10,10]  1 143 2 2 3 724
[*,6,10,10]  1 941 2 364 3 917
[*,7,10,10]  1 70 2 897 3 192
[*,8,10,10]  1 423 2 66 3 178
[*,9,10,10]  1 179 2 818 3 935
[*,10,10,10]  1 477 2 651 3 252;

#param U :=  1 996.0 2 997.0 3 994.0;
#param pu :=  1 998.0 2 998.0 3 1000.0;
#param pl :=  1 2.0 2 1.0 3 6.0;
